<number of tasks>
50

<cycle time>
1000

<order strength>
0.9


<task times>
1 123
2 533
3 311
4 216
5 269
6 102
7 434
8 93
9 207
10 562
11 538
12 215
13 204
14 90
15 170
16 96
17 323
18 279
19 132
20 54
21 264
22 122
23 487
24 41
25 129
26 79
27 248
28 263
29 188
30 104
31 125
32 140
33 171
34 201
35 135
36 52
37 180
38 66
39 69
40 172
41 83
42 139
43 444
44 129
45 224
46 301
47 554
48 314
49 581
50 72

<precedence relations>
1,10
1,11
2,3
2,4
3,5
3,6
3,7
4,5
4,6
4,7
5,8
5,9
5,10
5,11
6,8
6,9
6,10
6,11
7,8
7,9
7,10
7,11
8,12
8,13
8,14
9,12
9,13
9,14
10,12
10,13
10,14
11,12
11,13
11,14
12,15
12,16
13,15
13,16
14,15
14,16
15,17
15,18
16,34
16,38
17,19
17,20
17,21
18,19
18,20
18,21
19,22
19,23
19,24
19,25
20,22
21,22
21,23
21,24
21,25
22,26
22,27
23,26
23,27
24,26
24,27
25,26
25,27
26,28
26,29
26,30
26,31
27,28
27,29
27,30
27,31
28,32
29,32
29,34
30,35
31,32
31,33
32,36
32,41
33,36
33,37
33,38
34,37
34,44
35,36
35,37
35,38
36,39
36,40
36,42
37,46
37,47
38,39
38,40
38,41
39,44
40,43
41,42
41,44
42,50
43,45
44,45
45,46
45,47
46,48
46,49
46,50

<end>
